Minimize
  + 217.1998481904004 Constant
Subject To
 R171: (cloth_target_begin_2-value-(2,_0)) = 0.655
 R669: (cloth2-pose-(2,_0)) = 0.6539625794474178
 R798: - (cloth2-pose-(2,_0)) + (cloth_target_begin_2-value-(2,_0))
   <= 0.001
Bounds
 (cloth2-pose-(2,_0)) free
 (cloth_target_begin_2-value-(2,_0)) free
 Constant = 1
End
